p min 49 520
n 26 -769076.0
n 27 30492.0
n 28 30492.0
n 29 30492.0
n 30 30492.0
n 31 30492.0
n 32 30492.0
n 34 33880.0
n 35 37268.0
n 37 50820.0
n 38 47432.0
n 39 47432.0
n 40 47432.0
n 42 20328.0
n 43 115192.0
n 44 37268.0
n 45 23716.0
n 46 125356.0
a 0 1 0 256215.0 3983.0
a 0 1 0 256215.0 3500.0
a 0 2 0 256215.0 3569.0
a 0 3 0 256215.0 3324.0
a 0 4 0 769076.0 1155.0
a 0 4 0 0.0 0.0
a 0 8 0 256215.0 140934.0
a 0 42 0 256215.0 166292.0
a 0 42 0 0.0 0.0
a 0 1 0 0.0 0.0
a 0 1 0 0.0 0.0
a 0 2 0 256215.0 3476.0
a 0 2 0 0.0 0.0
a 0 2 0 0.0 0.0
a 0 3 0 256215.0 3685.0
a 0 3 0 0.0 0.0
a 0 3 0 0.0 0.0
a 0 4 0 769076.0 1151.0
a 0 4 0 0.0 0.0
a 0 8 0 0.0 0.0
a 0 8 0 0.0 0.0
a 0 8 0 256215.0 143571.0
a 0 42 0 256215.0 163203.0
a 0 42 0 0.0 0.0
a 1 2 0 256215.0 3674.0
a 1 0 0 0.0 0.0
a 1 0 0 0.0 0.0
a 1 0 0 256215.0 3500.0
a 1 0 0 256215.0 3983.0
a 1 2 0 256215.0 3627.0
a 1 3 0 256215.0 3576.0
a 1 4 0 769076.0 1214.0
a 1 20 0 256215.0 401789.0
a 1 39 0 256215.0 305129.0
a 1 2 0 0.0 0.0
a 1 2 0 0.0 0.0
a 1 3 0 256215.0 3712.0
a 1 3 0 0.0 0.0
a 1 3 0 0.0 0.0
a 1 4 0 769076.0 1212.0
a 1 4 0 0.0 0.0
a 1 4 0 0.0 0.0
a 1 20 0 256215.0 395564.0
a 1 20 0 0.0 0.0
a 1 20 0 0.0 0.0
a 1 39 0 256215.0 330080.0
a 1 39 0 0.0 0.0
a 1 39 0 0.0 0.0
a 2 3 0 256215.0 2988.0
a 2 1 0 0.0 0.0
a 2 0 0 0.0 0.0
a 2 1 0 0.0 0.0
a 2 0 0 0.0 0.0
a 2 0 0 256215.0 3476.0
a 2 0 0 256215.0 3569.0
a 2 1 0 256215.0 3627.0
a 2 1 0 256215.0 3674.0
a 2 3 0 256215.0 2888.0
a 2 4 0 769076.0 1126.0
a 2 16 0 256215.0 163694.0
a 2 32 0 256215.0 292924.0
a 2 3 0 0.0 0.0
a 2 3 0 0.0 0.0
a 2 4 0 769076.0 1132.0
a 2 4 0 0.0 0.0
a 2 4 0 0.0 0.0
a 2 16 0 0.0 0.0
a 2 16 0 0.0 0.0
a 2 16 0 256215.0 171024.0
a 2 32 0 256215.0 320454.0
a 2 32 0 0.0 0.0
a 2 32 0 0.0 0.0
a 3 27 0 256215.0 315061.0
a 3 2 0 0.0 0.0
a 3 0 0 0.0 0.0
a 3 1 0 0.0 0.0
a 3 2 0 0.0 0.0
a 3 0 0 0.0 0.0
a 3 0 0 256215.0 3685.0
a 3 0 0 256215.0 3324.0
a 3 1 0 0.0 0.0
a 3 1 0 256215.0 3712.0
a 3 1 0 256215.0 3576.0
a 3 2 0 256215.0 2888.0
a 3 2 0 256215.0 2988.0
a 3 4 0 769076.0 1136.0
a 3 14 0 256215.0 138267.0
a 3 27 0 256215.0 295759.0
a 3 4 0 769076.0 1135.0
a 3 4 0 0.0 0.0
a 3 4 0 0.0 0.0
a 3 14 0 256215.0 141975.0
a 3 14 0 0.0 0.0
a 3 14 0 0.0 0.0
a 3 27 0 0.0 0.0
a 3 27 0 0.0 0.0
a 4 0 0 0.0 0.0
a 4 0 0 769076.0 1151.0
a 4 1 0 0.0 0.0
a 4 2 0 0.0 0.0
a 4 3 0 0.0 0.0
a 4 0 0 0.0 0.0
a 4 0 0 769076.0 1155.0
a 4 1 0 0.0 0.0
a 4 1 0 769076.0 1212.0
a 4 1 0 769076.0 1214.0
a 4 2 0 0.0 0.0
a 4 2 0 769076.0 1132.0
a 4 2 0 769076.0 1126.0
a 4 3 0 0.0 0.0
a 4 3 0 769076.0 1135.0
a 4 3 0 769076.0 1136.0
a 5 6 0 512430.0 3714.0
a 5 6 0 512430.0 3705.0
a 5 7 0 769076.0 1016.0
a 5 7 0 0.0 0.0
a 5 10 0 256215.0 358403.0
a 5 20 0 256215.0 46991.0
a 5 6 0 0.0 0.0
a 5 6 0 0.0 0.0
a 5 7 0 769076.0 1014.0
a 5 7 0 0.0 0.0
a 5 10 0 256215.0 357100.0
a 5 10 0 0.0 0.0
a 5 10 0 0.0 0.0
a 5 20 0 256215.0 47320.0
a 5 20 0 0.0 0.0
a 5 20 0 0.0 0.0
a 6 29 0 256215.0 107199.0
a 6 5 0 0.0 0.0
a 6 5 0 0.0 0.0
a 6 5 0 512430.0 3705.0
a 6 5 0 512430.0 3714.0
a 6 7 0 769076.0 1068.0
a 6 29 0 256215.0 107129.0
a 6 37 0 256215.0 100168.0
a 6 7 0 769076.0 1071.0
a 6 7 0 0.0 0.0
a 6 7 0 0.0 0.0
a 6 29 0 0.0 0.0
a 6 29 0 0.0 0.0
a 6 37 0 256215.0 95539.0
a 6 37 0 0.0 0.0
a 6 37 0 0.0 0.0
a 7 5 0 0.0 0.0
a 7 5 0 769076.0 1014.0
a 7 6 0 0.0 0.0
a 7 5 0 0.0 0.0
a 7 5 0 769076.0 1016.0
a 7 6 0 0.0 0.0
a 7 6 0 769076.0 1071.0
a 7 6 0 769076.0 1068.0
a 8 9 0 256215.0 3895.0
a 8 0 0 0.0 0.0
a 8 0 0 256215.0 143571.0
a 8 0 0 256215.0 140934.0
a 8 0 0 0.0 0.0
a 8 9 0 256215.0 3799.0
a 8 10 0 256215.0 4929.0
a 8 11 0 256215.0 4842.0
a 8 12 0 600518.0 1227.0
a 8 12 0 -505674.0 0.0
a 8 25 0 256215.0 448369.0
a 8 9 0 0.0 0.0
a 8 9 0 0.0 0.0
a 8 10 0 256215.0 4302.0
a 8 10 0 0.0 0.0
a 8 10 0 0.0 0.0
a 8 11 0 256215.0 4472.0
a 8 11 0 0.0 0.0
a 8 11 0 0.0 0.0
a 8 12 0 431960.0 1230.0
a 8 12 0 0.0 0.0
a 8 25 0 424773.0 448206.0
a 8 25 0 337116.0 0.0
a 8 25 0 505674.0 0.0
a 9 10 0 256215.0 4521.0
a 9 8 0 0.0 0.0
a 9 8 0 0.0 0.0
a 9 8 0 256215.0 3799.0
a 9 8 0 256215.0 3895.0
a 9 10 0 256215.0 5331.0
a 9 11 0 256215.0 5012.0
a 9 12 0 769076.0 1331.0
a 9 14 0 256215.0 144852.0
a 9 17 0 256215.0 175976.0
a 9 35 0 256215.0 292247.0
a 9 10 0 0.0 0.0
a 9 10 0 0.0 0.0
a 9 11 0 256215.0 4383.0
a 9 11 0 0.0 0.0
a 9 11 0 0.0 0.0
a 9 12 0 769076.0 1331.0
a 9 12 0 0.0 0.0
a 9 12 0 0.0 0.0
a 9 14 0 256215.0 147304.0
a 9 14 0 0.0 0.0
a 9 14 0 0.0 0.0
a 9 17 0 256215.0 176088.0
a 9 17 0 0.0 0.0
a 9 17 0 0.0 0.0
a 9 35 0 256215.0 300960.0
a 9 35 0 0.0 0.0
a 9 35 0 0.0 0.0
a 10 28 0 256215.0 280583.0
a 10 9 0 0.0 0.0
a 10 5 0 0.0 0.0
a 10 8 0 0.0 0.0
a 10 9 0 0.0 0.0
a 10 5 0 0.0 0.0
a 10 5 0 256215.0 357100.0
a 10 5 0 256215.0 358403.0
a 10 8 0 0.0 0.0
a 10 8 0 256215.0 4302.0
a 10 8 0 256215.0 4929.0
a 10 9 0 256215.0 5331.0
a 10 9 0 256215.0 4521.0
a 10 11 0 256215.0 3768.0
a 10 12 0 769076.0 1293.0
a 10 28 0 256215.0 281668.0
a 10 11 0 256215.0 3612.0
a 10 11 0 0.0 0.0
a 10 11 0 0.0 0.0
a 10 12 0 769076.0 1293.0
a 10 12 0 0.0 0.0
a 10 12 0 0.0 0.0
a 10 28 0 0.0 0.0
a 10 28 0 0.0 0.0
a 11 21 0 256215.0 399493.0
a 11 8 0 0.0 0.0
a 11 9 0 0.0 0.0
a 11 10 0 0.0 0.0
a 11 8 0 0.0 0.0
a 11 8 0 256215.0 4472.0
a 11 8 0 256215.0 4842.0
a 11 9 0 0.0 0.0
a 11 9 0 256215.0 4383.0
a 11 9 0 256215.0 5012.0
a 11 10 0 0.0 0.0
a 11 10 0 256215.0 3612.0
a 11 10 0 256215.0 3768.0
a 11 12 0 769076.0 1524.0
a 11 21 0 256215.0 392730.0
a 11 31 0 -80901.0 284636.0
a 11 38 0 256215.0 290312.0
a 11 12 0 937634.0 1530.0
a 11 12 0 337116.0 0.0
a 11 12 0 505674.0 0.0
a 11 21 0 0.0 0.0
a 11 21 0 0.0 0.0
a 11 31 0 87657.0 276498.0
a 11 31 0 0.0 0.0
a 11 31 0 -505674.0 0.0
a 11 38 0 256215.0 303067.0
a 11 38 0 0.0 0.0
a 11 38 0 0.0 0.0
a 12 8 0 168558.0 0.0
a 12 8 0 1274750.0 1230.0
a 12 9 0 0.0 0.0
a 12 10 0 0.0 0.0
a 12 11 0 0.0 0.0
a 12 8 0 337116.0 0.0
a 12 8 0 769076.0 1227.0
a 12 9 0 0.0 0.0
a 12 9 0 769076.0 1331.0
a 12 9 0 769076.0 1331.0
a 12 10 0 0.0 0.0
a 12 10 0 769076.0 1293.0
a 12 10 0 769076.0 1293.0
a 12 11 0 -168558.0 0.0
a 12 11 0 431960.0 1530.0
a 12 11 0 263402.0 1524.0
a 13 14 0 512430.0 3971.0
a 13 14 0 512430.0 4478.0
a 13 15 0 769076.0 1111.0
a 13 31 0 256215.0 414554.0
a 13 35 0 256215.0 169828.0
a 13 38 0 256215.0 409167.0
a 13 14 0 0.0 0.0
a 13 14 0 0.0 0.0
a 13 15 0 769076.0 1112.0
a 13 15 0 0.0 0.0
a 13 15 0 0.0 0.0
a 13 31 0 256215.0 419244.0
a 13 31 0 0.0 0.0
a 13 31 0 0.0 0.0
a 13 35 0 256215.0 186449.0
a 13 35 0 0.0 0.0
a 13 35 0 0.0 0.0
a 13 38 0 256215.0 418777.0
a 13 38 0 0.0 0.0
a 13 38 0 0.0 0.0
a 14 15 0 769076.0 1099.0
a 14 13 0 0.0 0.0
a 14 3 0 0.0 0.0
a 14 9 0 0.0 0.0
a 14 13 0 0.0 0.0
a 14 3 0 0.0 0.0
a 14 3 0 256215.0 141975.0
a 14 3 0 256215.0 138267.0
a 14 9 0 0.0 0.0
a 14 9 0 256215.0 147304.0
a 14 9 0 256215.0 144852.0
a 14 13 0 512430.0 4478.0
a 14 13 0 512430.0 3971.0
a 14 15 0 769076.0 1098.0
a 14 42 0 256215.0 69378.0
a 14 47 0 256215.0 313889.0
a 14 15 0 0.0 0.0
a 14 15 0 0.0 0.0
a 14 42 0 256215.0 68965.0
a 14 42 0 0.0 0.0
a 14 42 0 0.0 0.0
a 14 47 0 276543.0 310799.0
a 14 47 0 40656.0 0.0
a 14 47 0 60984.0 0.0
a 15 14 0 0.0 0.0
a 15 13 0 0.0 0.0
a 15 14 0 0.0 0.0
a 15 13 0 0.0 0.0
a 15 13 0 769076.0 1112.0
a 15 13 0 769076.0 1111.0
a 15 14 0 769076.0 1098.0
a 15 14 0 769076.0 1099.0
a 16 17 0 512430.0 3271.0
a 16 2 0 0.0 0.0
a 16 2 0 256215.0 171024.0
a 16 2 0 256215.0 163694.0
a 16 2 0 0.0 0.0
a 16 17 0 512430.0 4359.0
a 16 18 0 769076.0 1226.0
a 16 18 0 0.0 0.0
a 16 39 0 256215.0 436469.0
a 16 17 0 0.0 0.0
a 16 17 0 0.0 0.0
a 16 18 0 816508.0 1225.0
a 16 18 0 142296.0 0.0
a 16 39 0 256215.0 430106.0
a 16 39 0 0.0 0.0
a 16 39 0 0.0 0.0
a 17 45 0 256215.0 154451.0
a 17 16 0 0.0 0.0
a 17 9 0 0.0 0.0
a 17 16 0 0.0 0.0
a 17 9 0 0.0 0.0
a 17 9 0 256215.0 176088.0
a 17 9 0 256215.0 175976.0
a 17 16 0 512430.0 4359.0
a 17 16 0 512430.0 3271.0
a 17 18 0 769076.0 1144.0
a 17 34 0 256215.0 128426.0
a 17 45 0 256215.0 155284.0
a 17 18 0 769076.0 1144.0
a 17 18 0 0.0 0.0
a 17 18 0 0.0 0.0
a 17 34 0 0.0 0.0
a 17 34 0 0.0 0.0
a 17 34 0 256215.0 135670.0
a 17 45 0 0.0 0.0
a 17 45 0 0.0 0.0
a 18 16 0 0.0 0.0
a 18 16 0 769076.0 1225.0
a 18 17 0 0.0 0.0
a 18 16 0 -47432.0 0.0
a 18 16 0 626780.0 1226.0
a 18 17 0 0.0 0.0
a 18 17 0 769076.0 1144.0
a 18 17 0 769076.0 1144.0
a 19 20 0 256215.0 2708.0
a 19 20 0 256215.0 3744.0
a 19 21 0 256215.0 3275.0
a 19 22 0 256215.0 2317.0
a 19 23 0 769076.0 990.0
a 19 23 0 0.0 0.0
a 19 40 0 256215.0 138316.0
a 19 20 0 0.0 0.0
a 19 20 0 0.0 0.0
a 19 21 0 256215.0 3282.0
a 19 21 0 0.0 0.0
a 19 21 0 0.0 0.0
a 19 22 0 256215.0 2338.0
a 19 22 0 0.0 0.0
a 19 22 0 0.0 0.0
a 19 23 0 769076.0 984.0
a 19 23 0 0.0 0.0
a 19 40 0 256215.0 133507.0
a 19 40 0 0.0 0.0
a 19 40 0 0.0 0.0
a 20 19 0 0.0 0.0
a 20 1 0 0.0 0.0
a 20 5 0 0.0 0.0
a 20 19 0 0.0 0.0
a 20 1 0 0.0 0.0
a 20 1 0 256215.0 395564.0
a 20 1 0 256215.0 401789.0
a 20 5 0 0.0 0.0
a 20 5 0 256215.0 47320.0
a 20 5 0 256215.0 46991.0
a 20 19 0 256215.0 3744.0
a 20 19 0 256215.0 2708.0
a 20 21 0 256215.0 4169.0
a 20 22 0 256215.0 3818.0
a 20 23 0 769076.0 1005.0
a 20 21 0 256215.0 3433.0
a 20 21 0 0.0 0.0
a 20 21 0 0.0 0.0
a 20 22 0 256215.0 3200.0
a 20 22 0 0.0 0.0
a 20 22 0 0.0 0.0
a 20 23 0 769076.0 1006.0
a 20 23 0 0.0 0.0
a 20 23 0 0.0 0.0
a 21 22 0 256215.0 3920.0
a 21 11 0 0.0 0.0
a 21 11 0 0.0 0.0
a 21 19 0 0.0 0.0
a 21 20 0 0.0 0.0
a 21 11 0 256215.0 392730.0
a 21 11 0 256215.0 399493.0
a 21 19 0 0.0 0.0
a 21 19 0 256215.0 3282.0
a 21 19 0 256215.0 3275.0
a 21 20 0 0.0 0.0
a 21 20 0 256215.0 3433.0
a 21 20 0 256215.0 4169.0
a 21 22 0 256215.0 3777.0
a 21 23 0 769076.0 977.0
a 21 22 0 0.0 0.0
a 21 22 0 0.0 0.0
a 21 23 0 769076.0 977.0
a 21 23 0 0.0 0.0
a 21 23 0 0.0 0.0
a 22 21 0 0.0 0.0
a 22 19 0 0.0 0.0
a 22 20 0 0.0 0.0
a 22 21 0 0.0 0.0
a 22 19 0 0.0 0.0
a 22 19 0 256215.0 2338.0
a 22 19 0 256215.0 2317.0
a 22 20 0 0.0 0.0
a 22 20 0 256215.0 3200.0
a 22 20 0 256215.0 3818.0
a 22 21 0 256215.0 3777.0
a 22 21 0 256215.0 3920.0
a 22 23 0 769076.0 995.0
a 22 27 0 256215.0 137969.0
a 22 23 0 769076.0 995.0
a 22 23 0 0.0 0.0
a 22 23 0 0.0 0.0
a 22 27 0 256215.0 137351.0
a 22 27 0 0.0 0.0
a 22 27 0 0.0 0.0
a 23 19 0 0.0 0.0
a 23 19 0 769076.0 984.0
a 23 20 0 0.0 0.0
a 23 21 0 0.0 0.0
a 23 22 0 0.0 0.0
a 23 19 0 0.0 0.0
a 23 19 0 769076.0 990.0
a 23 20 0 0.0 0.0
a 23 20 0 769076.0 1006.0
a 23 20 0 769076.0 1005.0
a 23 21 0 0.0 0.0
a 23 21 0 769076.0 977.0
a 23 21 0 769076.0 977.0
a 23 22 0 0.0 0.0
a 23 22 0 769076.0 995.0
a 23 22 0 769076.0 995.0
a 24 30 0 256215.0 728878.0
a 24 25 0 256215.0 2773.0
a 24 26 0 769076.0 1044.0
a 24 30 0 256215.0 758666.0
a 24 47 0 256215.0 1941.0
a 24 48 0 256215.0 1978.0
a 24 25 0 256215.0 2521.0
a 24 25 0 0.0 0.0
a 24 25 0 0.0 0.0
a 24 26 0 769076.0 1036.0
a 24 26 0 0.0 0.0
a 24 26 0 0.0 0.0
a 24 30 0 0.0 0.0
a 24 30 0 0.0 0.0
a 24 47 0 256215.0 2004.0
a 24 47 0 0.0 0.0
a 24 47 0 0.0 0.0
a 24 48 0 256215.0 2068.0
a 24 48 0 0.0 0.0
a 24 48 0 0.0 0.0
a 25 26 0 769076.0 999.0
a 25 8 0 0.0 0.0
a 25 24 0 0.0 0.0
a 25 8 0 -168558.0 0.0
a 25 8 0 -80901.0 448206.0
a 25 8 0 -249459.0 448369.0
a 25 24 0 0.0 0.0
a 25 24 0 256215.0 2521.0
a 25 24 0 256215.0 2773.0
a 25 26 0 769076.0 998.0
a 25 47 0 256215.0 2185.0
a 25 48 0 256215.0 2400.0
a 25 26 0 168558.0 0.0
a 25 26 0 505674.0 0.0
a 25 47 0 256215.0 2110.0
a 25 47 0 0.0 0.0
a 25 47 0 0.0 0.0
a 25 48 0 256215.0 1980.0
a 25 48 0 0.0 0.0
a 25 48 0 0.0 0.0
a 26 25 0 0.0 0.0
a 26 24 0 0.0 0.0
a 26 25 0 0.0 0.0
a 26 24 0 0.0 0.0
a 26 24 0 769076.0 1036.0
a 26 24 0 769076.0 1044.0
a 26 25 0 600518.0 998.0
a 26 25 0 263402.0 999.0
a 26 47 0 728420.0 997.0
a 26 48 0 -768214.0 978.0
a 26 47 0 748748.0 999.0
a 26 47 0 0.0 0.0
a 26 47 0 -60984.0 0.0
a 26 48 0 769076.0 978.0
a 26 48 0 0.0 0.0
a 26 48 0 -512430.0 0.0
a 27 3 0 0.0 0.0
a 27 3 0 0.0 0.0
a 27 22 0 0.0 0.0
a 27 3 0 256215.0 295759.0
a 27 3 0 256215.0 315061.0
a 27 22 0 0.0 0.0
a 27 22 0 256215.0 137351.0
a 27 22 0 256215.0 137969.0
a 27 28 0 256215.0 3867.0
a 27 29 0 256215.0 4283.0
a 27 30 0 256215.0 3948.0
a 27 31 0 256215.0 4044.0
a 27 32 0 256215.0 3309.0
a 27 33 0 769076.0 1072.0
a 27 33 0 0.0 0.0
a 27 43 0 256215.0 82786.0
a 27 43 0 0.0 0.0
a 27 28 0 256215.0 3039.0
a 27 28 0 0.0 0.0
a 27 28 0 0.0 0.0
a 27 29 0 256215.0 3144.0
a 27 29 0 0.0 0.0
a 27 29 0 0.0 0.0
a 27 30 0 256215.0 3263.0
a 27 30 0 0.0 0.0
a 27 30 0 0.0 0.0
a 27 31 0 256215.0 3337.0
a 27 31 0 0.0 0.0
a 27 31 0 0.0 0.0
a 27 32 0 256215.0 3272.0
a 27 32 0 0.0 0.0
a 27 32 0 0.0 0.0
a 27 33 0 815666.0 1070.0
a 27 33 0 139770.0 0.0
a 27 43 0 256215.0 79990.0
a 27 43 0 0.0 0.0
a 28 10 0 0.0 0.0
a 28 10 0 0.0 0.0
a 28 27 0 0.0 0.0
a 28 10 0 256215.0 281668.0
a 28 10 0 256215.0 280583.0
a 28 27 0 0.0 0.0
a 28 27 0 256215.0 3039.0
a 28 27 0 256215.0 3867.0
a 28 29 0 256215.0 3650.0
a 28 30 0 256215.0 6021.0
a 28 31 0 256215.0 2047.0
a 28 32 0 256215.0 3783.0
a 28 33 0 769076.0 1038.0
a 28 37 0 256215.0 26156.0
a 28 46 0 256215.0 25887.0
a 28 29 0 256215.0 3047.0
a 28 29 0 0.0 0.0
a 28 29 0 0.0 0.0
a 28 30 0 256215.0 3637.0
a 28 30 0 0.0 0.0
a 28 30 0 0.0 0.0
a 28 31 0 256215.0 2307.0
a 28 31 0 0.0 0.0
a 28 31 0 0.0 0.0
a 28 32 0 256215.0 3459.0
a 28 32 0 0.0 0.0
a 28 32 0 0.0 0.0
a 28 33 0 769076.0 1034.0
a 28 33 0 0.0 0.0
a 28 33 0 0.0 0.0
a 28 37 0 256215.0 24618.0
a 28 37 0 0.0 0.0
a 28 37 0 0.0 0.0
a 28 46 0 256215.0 21951.0
a 28 46 0 0.0 0.0
a 28 46 0 0.0 0.0
a 29 6 0 0.0 0.0
a 29 6 0 0.0 0.0
a 29 27 0 0.0 0.0
a 29 28 0 0.0 0.0
a 29 6 0 256215.0 107129.0
a 29 6 0 256215.0 107199.0
a 29 27 0 0.0 0.0
a 29 27 0 256215.0 3144.0
a 29 27 0 256215.0 4283.0
a 29 28 0 0.0 0.0
a 29 28 0 256215.0 3047.0
a 29 28 0 256215.0 3650.0
a 29 30 0 256215.0 4884.0
a 29 31 0 256215.0 3794.0
a 29 32 0 256215.0 3683.0
a 29 33 0 769076.0 1108.0
a 29 40 0 256215.0 27685.0
a 29 43 0 256215.0 79278.0
a 29 30 0 256215.0 3796.0
a 29 30 0 0.0 0.0
a 29 30 0 0.0 0.0
a 29 31 0 256215.0 3667.0
a 29 31 0 0.0 0.0
a 29 31 0 0.0 0.0
a 29 32 0 256215.0 3496.0
a 29 32 0 0.0 0.0
a 29 32 0 0.0 0.0
a 29 33 0 769076.0 1099.0
a 29 33 0 0.0 0.0
a 29 33 0 0.0 0.0
a 29 40 0 256215.0 29750.0
a 29 40 0 0.0 0.0
a 29 40 0 0.0 0.0
a 29 43 0 256215.0 93484.0
a 29 43 0 0.0 0.0
a 29 43 0 0.0 0.0
a 30 31 0 256215.0 3964.0
a 30 24 0 0.0 0.0
a 30 24 0 0.0 0.0
a 30 27 0 0.0 0.0
a 30 28 0 0.0 0.0
a 30 29 0 0.0 0.0
a 30 24 0 256215.0 758666.0
a 30 24 0 256215.0 728878.0
a 30 27 0 0.0 0.0
a 30 27 0 256215.0 3263.0
a 30 27 0 256215.0 3948.0
a 30 28 0 0.0 0.0
a 30 28 0 256215.0 3637.0
a 30 28 0 256215.0 6021.0
a 30 29 0 0.0 0.0
a 30 29 0 256215.0 3796.0
a 30 29 0 256215.0 4884.0
a 30 31 0 256215.0 4439.0
a 30 32 0 256215.0 3821.0
a 30 33 0 769076.0 1048.0
a 30 44 0 256215.0 78903.0
a 30 31 0 0.0 0.0
a 30 31 0 0.0 0.0
a 30 32 0 256215.0 3774.0
a 30 32 0 0.0 0.0
a 30 32 0 0.0 0.0
a 30 33 0 769076.0 1048.0
a 30 33 0 0.0 0.0
a 30 33 0 0.0 0.0
a 30 44 0 256215.0 73011.0
a 30 44 0 0.0 0.0
a 30 44 0 0.0 0.0
a 31 32 0 256215.0 3893.0
a 31 30 0 0.0 0.0
a 31 11 0 337116.0 0.0
a 31 13 0 0.0 0.0
a 31 27 0 0.0 0.0
a 31 28 0 0.0 0.0
a 31 29 0 0.0 0.0
a 31 30 0 0.0 0.0
a 31 11 0 168558.0 0.0
a 31 11 0 256215.0 276498.0
a 31 11 0 761889.0 284636.0
a 31 13 0 0.0 0.0
a 31 13 0 256215.0 419244.0
a 31 13 0 256215.0 414554.0
a 31 27 0 0.0 0.0
a 31 27 0 256215.0 3337.0
a 31 27 0 256215.0 4044.0
a 31 28 0 0.0 0.0
a 31 28 0 256215.0 2307.0
a 31 28 0 256215.0 2047.0
a 31 29 0 0.0 0.0
a 31 29 0 256215.0 3667.0
a 31 29 0 256215.0 3794.0
a 31 30 0 256215.0 4439.0
a 31 30 0 256215.0 3964.0
a 31 32 0 256215.0 4364.0
a 31 33 0 769076.0 1131.0
a 31 46 0 256215.0 26073.0
a 31 32 0 0.0 0.0
a 31 32 0 0.0 0.0
a 31 33 0 769076.0 1147.0
a 31 33 0 0.0 0.0
a 31 33 0 0.0 0.0
a 31 46 0 256215.0 22022.0
a 31 46 0 0.0 0.0
a 31 46 0 0.0 0.0
a 32 44 0 256215.0 72850.0
a 32 31 0 0.0 0.0
a 32 2 0 0.0 0.0
a 32 27 0 0.0 0.0
a 32 28 0 0.0 0.0
a 32 29 0 0.0 0.0
a 32 30 0 0.0 0.0
a 32 31 0 0.0 0.0
a 32 2 0 0.0 0.0
a 32 2 0 256215.0 320454.0
a 32 2 0 256215.0 292924.0
a 32 27 0 0.0 0.0
a 32 27 0 256215.0 3272.0
a 32 27 0 256215.0 3309.0
a 32 28 0 0.0 0.0
a 32 28 0 256215.0 3459.0
a 32 28 0 256215.0 3783.0
a 32 29 0 0.0 0.0
a 32 29 0 256215.0 3496.0
a 32 29 0 256215.0 3683.0
a 32 30 0 0.0 0.0
a 32 30 0 256215.0 3774.0
a 32 30 0 256215.0 3821.0
a 32 31 0 256215.0 4364.0
a 32 31 0 256215.0 3893.0
a 32 33 0 769076.0 983.0
a 32 44 0 256215.0 73064.0
a 32 33 0 769076.0 983.0
a 32 33 0 0.0 0.0
a 32 33 0 0.0 0.0
a 32 44 0 0.0 0.0
a 32 44 0 0.0 0.0
a 33 27 0 0.0 0.0
a 33 27 0 769076.0 1070.0
a 33 28 0 0.0 0.0
a 33 29 0 0.0 0.0
a 33 30 0 0.0 0.0
a 33 31 0 0.0 0.0
a 33 32 0 0.0 0.0
a 33 27 0 -46590.0 0.0
a 33 27 0 629306.0 1072.0
a 33 28 0 0.0 0.0
a 33 28 0 769076.0 1034.0
a 33 28 0 769076.0 1038.0
a 33 29 0 0.0 0.0
a 33 29 0 769076.0 1099.0
a 33 29 0 769076.0 1108.0
a 33 30 0 0.0 0.0
a 33 30 0 769076.0 1048.0
a 33 30 0 769076.0 1048.0
a 33 31 0 0.0 0.0
a 33 31 0 769076.0 1147.0
a 33 31 0 769076.0 1131.0
a 33 32 0 0.0 0.0
a 33 32 0 769076.0 983.0
a 33 32 0 769076.0 983.0
a 34 35 0 512430.0 3766.0
a 34 17 0 0.0 0.0
a 34 17 0 256215.0 135670.0
a 34 17 0 256215.0 128426.0
a 34 17 0 0.0 0.0
a 34 35 0 512430.0 4410.0
a 34 36 0 769076.0 1182.0
a 34 37 0 28377.0 558769.0
a 34 45 0 256215.0 33162.0
a 34 35 0 0.0 0.0
a 34 35 0 0.0 0.0
a 34 36 0 769076.0 1182.0
a 34 36 0 0.0 0.0
a 34 36 0 0.0 0.0
a 34 37 0 142296.0 559739.0
a 34 37 0 0.0 0.0
a 34 37 0 -341757.0 0.0
a 34 45 0 256215.0 32981.0
a 34 45 0 0.0 0.0
a 34 45 0 0.0 0.0
a 35 36 0 769076.0 1194.0
a 35 34 0 0.0 0.0
a 35 9 0 0.0 0.0
a 35 13 0 0.0 0.0
a 35 34 0 0.0 0.0
a 35 9 0 0.0 0.0
a 35 9 0 256215.0 300960.0
a 35 9 0 256215.0 292247.0
a 35 13 0 0.0 0.0
a 35 13 0 256215.0 186449.0
a 35 13 0 256215.0 169828.0
a 35 34 0 512430.0 4410.0
a 35 34 0 512430.0 3766.0
a 35 36 0 -656410.0 1192.0
a 35 48 0 256215.0 155631.0
a 35 36 0 -475162.0 0.0
a 35 36 0 0.0 0.0
a 35 48 0 512430.0 155848.0
a 35 48 0 512430.0 0.0
a 35 48 0 768645.0 0.0
a 36 35 0 0.0 0.0
a 36 34 0 0.0 0.0
a 36 35 0 1425486.0 0.0
a 36 34 0 0.0 0.0
a 36 34 0 769076.0 1182.0
a 36 34 0 769076.0 1182.0
a 36 35 0 1244238.0 1192.0
a 36 35 0 769076.0 1194.0
a 37 38 0 256215.0 3652.0
a 37 6 0 0.0 0.0
a 37 28 0 0.0 0.0
a 37 34 0 227838.0 0.0
a 37 6 0 0.0 0.0
a 37 6 0 256215.0 95539.0
a 37 6 0 256215.0 100168.0
a 37 28 0 0.0 0.0
a 37 28 0 256215.0 24618.0
a 37 28 0 256215.0 26156.0
a 37 34 0 113919.0 0.0
a 37 34 0 256215.0 559739.0
a 37 34 0 597972.0 558769.0
a 37 38 0 256215.0 6615.0
a 37 39 0 256215.0 5334.0
a 37 40 0 256215.0 4161.0
a 37 41 0 769076.0 1137.0
a 37 41 0 0.0 0.0
a 37 46 0 256215.0 9453.0
a 37 38 0 0.0 0.0
a 37 38 0 0.0 0.0
a 37 39 0 256215.0 3857.0
a 37 39 0 0.0 0.0
a 37 39 0 0.0 0.0
a 37 40 0 256215.0 3620.0
a 37 40 0 0.0 0.0
a 37 40 0 0.0 0.0
a 37 41 0 769076.0 1136.0
a 37 41 0 0.0 0.0
a 37 46 0 256215.0 9438.0
a 37 46 0 0.0 0.0
a 37 46 0 0.0 0.0
a 38 39 0 256215.0 4095.0
a 38 37 0 0.0 0.0
a 38 11 0 0.0 0.0
a 38 13 0 0.0 0.0
a 38 37 0 0.0 0.0
a 38 11 0 0.0 0.0
a 38 11 0 256215.0 303067.0
a 38 11 0 256215.0 290312.0
a 38 13 0 0.0 0.0
a 38 13 0 256215.0 418777.0
a 38 13 0 256215.0 409167.0
a 38 37 0 256215.0 6615.0
a 38 37 0 256215.0 3652.0
a 38 39 0 256215.0 4938.0
a 38 40 0 256215.0 4248.0
a 38 41 0 769076.0 1176.0
a 38 43 0 256215.0 83974.0
a 38 46 0 256215.0 9530.0
a 38 39 0 0.0 0.0
a 38 39 0 0.0 0.0
a 38 40 0 256215.0 3934.0
a 38 40 0 0.0 0.0
a 38 40 0 0.0 0.0
a 38 41 0 769076.0 1177.0
a 38 41 0 0.0 0.0
a 38 41 0 0.0 0.0
a 38 43 0 256215.0 83446.0
a 38 43 0 0.0 0.0
a 38 43 0 0.0 0.0
a 38 46 0 256215.0 9542.0
a 38 46 0 0.0 0.0
a 38 46 0 0.0 0.0
a 39 40 0 256215.0 4255.0
a 39 38 0 0.0 0.0
a 39 1 0 0.0 0.0
a 39 16 0 0.0 0.0
a 39 37 0 0.0 0.0
a 39 38 0 0.0 0.0
a 39 1 0 0.0 0.0
a 39 1 0 256215.0 330080.0
a 39 1 0 256215.0 305129.0
a 39 16 0 0.0 0.0
a 39 16 0 256215.0 430106.0
a 39 16 0 256215.0 436469.0
a 39 37 0 0.0 0.0
a 39 37 0 256215.0 3857.0
a 39 37 0 256215.0 5334.0
a 39 38 0 256215.0 4938.0
a 39 38 0 256215.0 4095.0
a 39 40 0 256215.0 5607.0
a 39 41 0 769076.0 1301.0
a 39 44 0 256215.0 80063.0
a 39 40 0 0.0 0.0
a 39 40 0 0.0 0.0
a 39 41 0 769076.0 1299.0
a 39 41 0 0.0 0.0
a 39 41 0 0.0 0.0
a 39 44 0 256215.0 78658.0
a 39 44 0 0.0 0.0
a 39 44 0 0.0 0.0
a 40 46 0 256215.0 9216.0
a 40 39 0 0.0 0.0
a 40 19 0 0.0 0.0
a 40 29 0 0.0 0.0
a 40 37 0 0.0 0.0
a 40 38 0 0.0 0.0
a 40 39 0 0.0 0.0
a 40 19 0 0.0 0.0
a 40 19 0 256215.0 133507.0
a 40 19 0 256215.0 138316.0
a 40 29 0 0.0 0.0
a 40 29 0 256215.0 29750.0
a 40 29 0 256215.0 27685.0
a 40 37 0 0.0 0.0
a 40 37 0 256215.0 3620.0
a 40 37 0 256215.0 4161.0
a 40 38 0 0.0 0.0
a 40 38 0 256215.0 3934.0
a 40 38 0 256215.0 4248.0
a 40 39 0 256215.0 5607.0
a 40 39 0 256215.0 4255.0
a 40 41 0 769076.0 1137.0
a 40 46 0 256215.0 8907.0
a 40 41 0 769076.0 1140.0
a 40 41 0 0.0 0.0
a 40 41 0 0.0 0.0
a 40 46 0 0.0 0.0
a 40 46 0 0.0 0.0
a 41 37 0 0.0 0.0
a 41 37 0 769076.0 1136.0
a 41 38 0 0.0 0.0
a 41 39 0 0.0 0.0
a 41 40 0 0.0 0.0
a 41 37 0 0.0 0.0
a 41 37 0 769076.0 1137.0
a 41 38 0 0.0 0.0
a 41 38 0 769076.0 1177.0
a 41 38 0 769076.0 1176.0
a 41 39 0 0.0 0.0
a 41 39 0 769076.0 1299.0
a 41 39 0 769076.0 1301.0
a 41 40 0 0.0 0.0
a 41 40 0 769076.0 1140.0
a 41 40 0 769076.0 1137.0
a 42 0 0 0.0 0.0
a 42 0 0 256215.0 163203.0
a 42 14 0 0.0 0.0
a 42 0 0 0.0 0.0
a 42 0 0 256215.0 166292.0
a 42 14 0 0.0 0.0
a 42 14 0 256215.0 68965.0
a 42 14 0 256215.0 69378.0
a 43 27 0 0.0 0.0
a 43 27 0 256215.0 79990.0
a 43 29 0 0.0 0.0
a 43 38 0 0.0 0.0
a 43 27 0 0.0 0.0
a 43 27 0 256215.0 82786.0
a 43 29 0 0.0 0.0
a 43 29 0 256215.0 93484.0
a 43 29 0 256215.0 79278.0
a 43 38 0 0.0 0.0
a 43 38 0 256215.0 83446.0
a 43 38 0 256215.0 83974.0
a 44 32 0 0.0 0.0
a 44 30 0 0.0 0.0
a 44 32 0 0.0 0.0
a 44 39 0 0.0 0.0
a 44 30 0 0.0 0.0
a 44 30 0 256215.0 73011.0
a 44 30 0 256215.0 78903.0
a 44 32 0 256215.0 73064.0
a 44 32 0 256215.0 72850.0
a 44 39 0 0.0 0.0
a 44 39 0 256215.0 78658.0
a 44 39 0 256215.0 80063.0
a 45 17 0 0.0 0.0
a 45 17 0 0.0 0.0
a 45 34 0 0.0 0.0
a 45 17 0 256215.0 155284.0
a 45 17 0 256215.0 154451.0
a 45 34 0 0.0 0.0
a 45 34 0 256215.0 32981.0
a 45 34 0 256215.0 33162.0
a 46 40 0 0.0 0.0
a 46 28 0 0.0 0.0
a 46 31 0 0.0 0.0
a 46 37 0 0.0 0.0
a 46 38 0 0.0 0.0
a 46 40 0 0.0 0.0
a 46 28 0 0.0 0.0
a 46 28 0 256215.0 21951.0
a 46 28 0 256215.0 25887.0
a 46 31 0 0.0 0.0
a 46 31 0 256215.0 22022.0
a 46 31 0 256215.0 26073.0
a 46 37 0 0.0 0.0
a 46 37 0 256215.0 9438.0
a 46 37 0 256215.0 9453.0
a 46 38 0 0.0 0.0
a 46 38 0 256215.0 9542.0
a 46 38 0 256215.0 9530.0
a 46 40 0 256215.0 8907.0
a 46 40 0 256215.0 9216.0
a 47 48 0 256215.0 1840.0
a 47 14 0 0.0 0.0
a 47 24 0 0.0 0.0
a 47 25 0 0.0 0.0
a 47 26 0 40656.0 0.0
a 47 14 0 -20328.0 0.0
a 47 14 0 215559.0 310799.0
a 47 14 0 195231.0 313889.0
a 47 24 0 0.0 0.0
a 47 24 0 256215.0 2004.0
a 47 24 0 256215.0 1941.0
a 47 25 0 0.0 0.0
a 47 25 0 256215.0 2110.0
a 47 25 0 256215.0 2185.0
a 47 26 0 20328.0 0.0
a 47 26 0 769076.0 999.0
a 47 26 0 830060.0 997.0
a 47 48 0 256215.0 1839.0
a 47 48 0 0.0 0.0
a 47 48 0 0.0 0.0
a 48 47 0 0.0 0.0
a 48 24 0 0.0 0.0
a 48 25 0 0.0 0.0
a 48 26 0 1537290.0 0.0
a 48 35 0 0.0 0.0
a 48 47 0 0.0 0.0
a 48 24 0 0.0 0.0
a 48 24 0 256215.0 2068.0
a 48 24 0 256215.0 1978.0
a 48 25 0 0.0 0.0
a 48 25 0 256215.0 1980.0
a 48 25 0 256215.0 2400.0
a 48 26 0 0.0 0.0
a 48 26 0 769076.0 978.0
a 48 26 0 1281506.0 978.0
a 48 35 0 -256215.0 0.0
a 48 35 0 -256215.0 155848.0
a 48 35 0 -512430.0 155631.0
a 48 47 0 256215.0 1839.0
a 48 47 0 256215.0 1840.0
